Academic license - for non-commercial use only
Gurobi Optimizer version 9.0.3 build v9.0.3rc0 (mac64)
Optimize a model with 383414 rows, 360720 columns and 2101770 nonzeros
Model fingerprint: 0xa8ea3d22
Variable types: 0 continuous, 360720 integer (360720 binary)
Coefficient statistics:
  Matrix range     [1e+00, 1e+00]
  Objective range  [1e+01, 1e+05]
  Bounds range     [1e+00, 1e+00]
  RHS range        [1e+00, 1e+03]
Presolve removed 10030 rows and 30 columns (presolve time = 6s) ...
Presolve added 0 rows and 9970 columns
Presolve removed 30 rows and 0 columns
Presolve time: 7.12s
Presolved: 383384 rows, 370690 columns, 1531710 nonzeros
Variable types: 0 continuous, 370690 integer (370690 binary)
Found heuristic solution: objective 1398736.0000

Concurrent LP optimizer: dual simplex and barrier
Showing barrier log only...

Root barrier log...

Ordering time: 0.10s

Barrier statistics:
 Dense cols : 360
 AA' NZ     : 1.188e+06
 Factor NZ  : 7.430e+06 (roughly 400 MBytes of memory)
 Factor Ops : 2.001e+09 (less than 1 second per iteration)
 Threads    : 3

                  Objective                Residual
Iter       Primal          Dual         Primal    Dual     Compl     Time
   0   5.62832729e+08 -7.80881824e+08  4.38e+02 2.89e+01  3.51e+04    15s
   1   3.13733708e+06 -1.00516134e+09  3.56e+00 7.50e+03  1.16e+03    15s
   2   2.00671022e+06 -3.56380485e+08  1.01e+00 2.04e+03  3.62e+02    16s
   3   1.93567394e+06 -1.94553697e+08  8.53e-01 1.06e+03  1.97e+02    16s
   4   1.64977051e+06 -1.05898752e+08  2.00e-01 5.41e+02  1.01e+02    17s
   5   1.57463165e+06 -6.74425637e+06  6.64e-02 3.54e+01  7.62e+00    17s
   6   1.50115173e+06 -2.40681700e+06  3.70e-02 1.49e+01  3.56e+00    18s
   7   1.45907611e+06 -9.52716104e+05  2.79e-02 8.97e+00  2.19e+00    18s
   8   1.42449779e+06  9.38636482e+04  2.27e-02 4.62e+00  1.20e+00    18s
   9   1.39715360e+06  8.03901188e+05  1.90e-02 1.68e+00  5.32e-01    19s
  10   1.37188730e+06  9.82462115e+05  1.60e-02 1.11e+00  3.47e-01    19s
  11   1.34352369e+06  1.08308378e+06  1.30e-02 5.57e-01  2.31e-01    20s
  12   1.32151428e+06  1.12982896e+06  1.10e-02 4.46e-01  1.69e-01    21s
  13   1.30368385e+06  1.15025740e+06  9.53e-03 2.97e-01  1.35e-01    21s
  14   1.29607167e+06  1.16569060e+06  8.85e-03 1.95e-01  1.15e-01    22s
  15   1.27883820e+06  1.17598160e+06  7.54e-03 1.24e-01  9.03e-02    23s
  16   1.26021855e+06  1.18293659e+06  6.06e-03 7.57e-02  6.77e-02    23s
  17   1.24487417e+06  1.18668272e+06  4.73e-03 5.23e-02  5.09e-02    24s
  18   1.23516344e+06  1.18939916e+06  3.88e-03 3.59e-02  4.00e-02    24s
  19   1.22730860e+06  1.19108752e+06  3.14e-03 3.15e-02  3.16e-02    25s
  20   1.22209113e+06  1.19237843e+06  2.65e-03 2.75e-02  2.59e-02    25s
  21   1.22092087e+06  1.19298668e+06  2.53e-03 2.40e-02  2.43e-02    26s
  22   1.21315093e+06  1.19366712e+06  1.77e-03 1.98e-02  1.70e-02    27s
  23   1.20951112e+06  1.19411466e+06  1.43e-03 1.68e-02  1.34e-02    27s
  24   1.20674786e+06  1.19453975e+06  1.15e-03 1.39e-02  1.06e-02    28s
  25   1.20499870e+06  1.19488757e+06  9.81e-04 1.16e-02  8.80e-03    28s
  26   1.20327929e+06  1.19511748e+06  7.91e-04 1.01e-02  7.10e-03    29s
  27   1.20264306e+06  1.19530472e+06  7.23e-04 8.80e-03  6.38e-03    29s
  28   1.20176720e+06  1.19553558e+06  6.26e-04 7.33e-03  5.41e-03    30s
  29   1.20080398e+06  1.19565329e+06  5.16e-04 6.59e-03  4.48e-03    30s
  30   1.20024594e+06  1.19580109e+06  4.51e-04 5.99e-03  3.86e-03    31s
  31   1.19986669e+06  1.19598501e+06  4.04e-04 4.86e-03  3.37e-03    31s
  32   1.19935249e+06  1.19605264e+06  3.43e-04 4.74e-03  2.86e-03    32s
  33   1.19914755e+06  1.19612381e+06  3.18e-04 4.12e-03  2.62e-03    32s
  34   1.19886583e+06  1.19622595e+06  2.85e-04 3.45e-03  2.29e-03    33s
  35   1.19868161e+06  1.19630034e+06  2.61e-04 2.95e-03  2.06e-03    33s
  36   1.19849238e+06  1.19638539e+06  2.39e-04 2.66e-03  1.82e-03    34s
  37   1.19837802e+06  1.19641785e+06  2.25e-04 2.43e-03  1.69e-03    34s
  38   1.19834165e+06  1.19642516e+06  2.20e-04 2.41e-03  1.66e-03    35s
  39   1.19820487e+06  1.19644196e+06  2.03e-04 2.23e-03  1.52e-03    35s
  40   1.19809148e+06  1.19647973e+06  1.89e-04 1.86e-03  1.39e-03    36s
  41   1.19797334e+06  1.19651731e+06  1.75e-04 1.60e-03  1.26e-03    36s
  42   1.19783799e+06  1.19653610e+06  1.57e-04 1.46e-03  1.12e-03    37s
  43   1.19775949e+06  1.19658384e+06  1.47e-04 1.20e-03  1.01e-03    37s
  44   1.19759807e+06  1.19659732e+06  1.24e-04 1.12e-03  8.62e-04    37s
  45   1.19752496e+06  1.19660772e+06  1.14e-04 1.02e-03  7.90e-04    38s
  46   1.19741620e+06  1.19662349e+06  9.97e-05 8.93e-04  6.83e-04    38s
  47   1.19732370e+06  1.19663791e+06  8.66e-05 7.97e-04  5.90e-04    39s
  48   1.19724423e+06  1.19664525e+06  7.52e-05 7.41e-04  5.16e-04    39s
  49   1.19720202e+06  1.19665860e+06  6.94e-05 6.54e-04  4.68e-04    40s
  50   1.19716530e+06  1.19666528e+06  6.40e-05 5.93e-04  4.30e-04    40s
  51   1.19711738e+06  1.19667192e+06  5.71e-05 5.49e-04  3.83e-04    41s
  52   1.19710491e+06  1.19667437e+06  5.53e-05 5.31e-04  3.70e-04    41s
  53   1.19707390e+06  1.19667984e+06  5.07e-05 4.82e-04  3.39e-04    42s
  54   1.19706383e+06  1.19668588e+06  4.93e-05 4.41e-04  3.25e-04    42s
  55   1.19705187e+06  1.19669085e+06  4.74e-05 4.06e-04  3.10e-04    43s
  56   1.19700798e+06  1.19670106e+06  4.11e-05 3.36e-04  2.63e-04    43s
  57   1.19699249e+06  1.19670395e+06  3.88e-05 3.16e-04  2.48e-04    44s
  58   1.19696939e+06  1.19670972e+06  3.55e-05 2.81e-04  2.23e-04    44s
  59   1.19694086e+06  1.19671362e+06  3.13e-05 2.43e-04  1.95e-04    45s
  60   1.19692505e+06  1.19671873e+06  2.88e-05 2.08e-04  1.77e-04    45s
  61   1.19692240e+06  1.19672067e+06  2.84e-05 1.97e-04  1.73e-04    46s
  62   1.19690889e+06  1.19672264e+06  2.62e-05 1.88e-04  1.60e-04    46s
  63   1.19689890e+06  1.19672323e+06  2.46e-05 1.82e-04  1.50e-04    46s
  64   1.19688568e+06  1.19672703e+06  2.24e-05 1.55e-04  1.36e-04    47s
  65   1.19687707e+06  1.19672988e+06  2.11e-05 1.29e-04  1.26e-04    47s
  66   1.19686753e+06  1.19673083e+06  1.98e-05 1.19e-04  1.17e-04    48s
  67   1.19685244e+06  1.19673441e+06  1.74e-05 9.21e-05  1.01e-04    48s
  68   1.19684332e+06  1.19673610e+06  1.59e-05 7.99e-05  9.16e-05    49s
  69   1.19683891e+06  1.19673646e+06  1.52e-05 7.75e-05  8.75e-05    49s
  70   1.19683211e+06  1.19673739e+06  1.41e-05 7.18e-05  8.09e-05    50s
  71   1.19682936e+06  1.19673790e+06  1.36e-05 6.90e-05  7.81e-05    50s
  72   1.19682275e+06  1.19673919e+06  1.25e-05 6.12e-05  7.13e-05    51s
  73   1.19681549e+06  1.19674070e+06  1.13e-05 5.19e-05  6.38e-05    51s
  74   1.19680250e+06  1.19674203e+06  9.21e-06 4.22e-05  5.16e-05    52s
  75   1.19679718e+06  1.19674274e+06  8.43e-06 3.78e-05  4.64e-05    52s
  76   1.19679258e+06  1.19674390e+06  7.71e-06 3.03e-05  4.14e-05    53s
  77   1.19678457e+06  1.19674446e+06  6.44e-06 2.56e-05  3.41e-05    53s
  78   1.19678222e+06  1.19674491e+06  6.01e-06 2.25e-05  3.17e-05    54s
  79   1.19677867e+06  1.19674527e+06  5.37e-06 2.02e-05  2.84e-05    54s
  80   1.19677476e+06  1.19674547e+06  4.69e-06 1.85e-05  2.49e-05    54s
  81   1.19677023e+06  1.19674579e+06  3.87e-06 1.59e-05  2.08e-05    55s
  82   1.19676379e+06  1.19674681e+06  2.70e-06 9.82e-06  1.44e-05    55s
  83   1.19676162e+06  1.19674727e+06  2.32e-06 7.12e-06  1.22e-05    56s
  84   1.19675945e+06  1.19674746e+06  1.93e-06 5.91e-06  1.02e-05    56s
  85   1.19675785e+06  1.19674798e+06  1.67e-06 2.88e-06  8.36e-06    57s
  86   1.19675545e+06  1.19674810e+06  1.29e-06 2.38e-06  6.21e-06    57s
  87   1.19675143e+06  1.19674842e+06  5.18e-07 2.91e-07  2.55e-06    58s
  88   1.19674954e+06  1.19674854e+06  1.64e-07 1.58e-07  8.52e-07    58s
  89   1.19674866e+06  1.19674863e+06  5.25e-09 9.88e-08  2.86e-08    59s
  90   1.19674865e+06  1.19674863e+06  2.74e-08 5.03e-08  1.87e-08    59s
  91   1.19674865e+06  1.19674863e+06  5.76e-08 4.98e-08  1.84e-08    59s
  92   1.19674865e+06  1.19674863e+06  1.02e-07 4.97e-08  1.84e-08    60s
  93   1.19674865e+06  1.19674863e+06  1.02e-07 4.97e-08  1.84e-08    60s

Barrier solved model in 93 iterations and 60.30 seconds
Optimal objective 1.19674865e+06


Root crossover log...

  133039 DPushes remaining with DInf 4.4184995e-05                61s
       0 DPushes remaining with DInf 0.0000000e+00                63s

    2486 PPushes remaining with PInf 2.8834810e-05                63s
       0 PPushes remaining with PInf 0.0000000e+00                63s

  Push phase complete: Pinf 0.0000000e+00, Dinf 1.8066526e-10     63s


Root simplex log...

Iteration    Objective       Primal Inf.    Dual Inf.      Time
   19067    1.1967486e+06   0.000000e+00   0.000000e+00     63s

Solved with barrier

Root relaxation: objective 1.196749e+06, 19067 iterations, 50.66 seconds
Total elapsed time = 65.22s

    Nodes    |    Current Node    |     Objective Bounds      |     Work
 Expl Unexpl |  Obj  Depth IntInf | Incumbent    BestBd   Gap | It/Node Time

     0     0 1196748.63    0 22002 1398736.00 1196748.63  14.4%     -   68s
H    0     0                    1211777.0000 1196748.63  1.24%     -   71s
H    0     0                    1211312.0000 1196748.63  1.20%     -  118s
     0     0 1196750.37    0 21995 1211312.00 1196750.37  1.20%     -  140s
     0     0 1196751.53    0 22013 1211312.00 1196751.53  1.20%     -  145s
     0     0 1196765.78    0 22128 1211312.00 1196765.78  1.20%     -  175s
     0     0 1196767.77    0 22108 1211312.00 1196767.77  1.20%     -  180s
     0     0 1196767.90    0 22084 1211312.00 1196767.90  1.20%     -  183s
     0     0 1196769.12    0 22097 1211312.00 1196769.12  1.20%     -  187s
     0     0 1196769.26    0 22052 1211312.00 1196769.26  1.20%     -  189s
     0     0 1196769.27    0 22052 1211312.00 1196769.27  1.20%     -  189s
     0     0 1196779.54    0 22190 1211312.00 1196779.54  1.20%     -  217s
     0     0 1196781.25    0 22216 1211312.00 1196781.25  1.20%     -  220s
     0     0 1196789.56    0 22161 1211312.00 1196789.56  1.20%     -  248s
     0     0 1196789.87    0 22141 1211312.00 1196789.87  1.20%     -  251s
     0     0 1196789.87    0 22153 1211312.00 1196789.87  1.20%     -  252s
     0     0 1196808.16    0 22253 1211312.00 1196808.16  1.20%     -  278s
     0     0 1196810.53    0 21714 1211312.00 1196810.53  1.20%     -  283s
     0     0 1196811.18    0 22226 1211312.00 1196811.18  1.20%     -  285s
     0     0 1196811.19    0 22226 1211312.00 1196811.19  1.20%     -  286s

Cutting planes:
  Gomory: 2
  Zero half: 179

Explored 1 nodes (35439 simplex iterations) in 300.15 seconds
Thread count was 8 (of 8 available processors)

Solution count 3: 1.21131e+06 1.21178e+06 1.39874e+06 

Time limit reached
Best objective 1.211312000000e+06, best bound 1.196811186559e+06, gap 1.1971%

User-callback calls 35984, time in user-callback 0.33 sec
Solution written to /Users/mdeboute/Desktop/Etudes/Master/M2/S9/GOPP/Projet/multi-period-flp/solution/instMulti_I30_J1000_T12_1_result.txt
